
param n:=5; # 5 demand regions 
param m:=5; #
param p:=3; # warehouses 

param f:=
		1 800
		2 650
		3 1000;
param h:=
		1 160
		2 130
		3 200;
param d:=
		1	80
		2	270
		3	250
		4	160
		5	180;
param c_iw:
		1	2	3:=
	1	85	63	160
	2	97	100	95
	3	125	50	95
	4	43	104	65
	5	70	58	31;
param c_wj:
		1	2	3	4	5:=
	1	81	92	101	130	115	
	2	117	77	108	98	100	
	3	102	105	95	119	111;
	
param cap:=
1	450
2	325
3	500
4	305
5	300;

param ss:=
1	15
2	15
3	15;

param mininv:=
1	40
2	40
3	40;
